NAME : portcgen-25-26
COMMENT : portcgen N=25, seed=26
TYPE : TSP
DIMENSION : 25
EDGE_WEIGHT_TYPE : EUC_2D
NODE_COORD_SECTION
1 -165979 -54080
2 143957 -218217
3 -8163 -79681
4 -212117 330512
5 -170406 82485
6 167800 6506
7 -88140 20660
8 -330236 -99322
9 62235 218128
10 -46664 -338060
11 -271364 304684
12 -145959 -63248
13 -110075 217238
14 -155027 -263589
15 266415 -526941
16 39841 -199728
17 276074 187578
18 -170924 -305452
19 131722 36018
20 278602 -84738
21 -441268 212317
22 -113260 178106
23 356318 -502930
24 398435 218744
25 -431884 -292063
